Solver command line: ['/opt/ibm/ILOG/CPLEX_Studio221/cplex/bin/x86-64_linux/cplex']


Welcome to IBM(R) ILOG(R) CPLEX(R) Interactive Optimizer 22.1.0.0
  with Simplex, Mixed Integer & Barrier Optimizers
5725-A06 5725-A29 5724-Y48 5724-Y49 5724-Y54 5724-Y55 5655-Y21
Copyright IBM Corp. 1988, 2022.  All Rights Reserved.

Type 'help' for a list of available commands.
Type 'help' followed by a command name for more
information on commands.

CPLEX> Logfile 'cplex.log' closed.
Logfile 'Solver_Output.log' open.
CPLEX> New value for mixed integer optimality gap tolerance: 0.05
CPLEX> New value for time limit in seconds: 36000
CPLEX> Problem '/tmp/tmp_inu2spe.pyomo.lp' read.
Read time = 0.13 sec. (12.77 ticks)
CPLEX> Problem name         : /tmp/tmp_inu2spe.pyomo.lp
Objective sense      : Minimize
Variables            :   96366  [Nneg: 52561,  Box: 35044,  General Integer: 8761]
Objective nonzeros   :   43804
Linear constraints   :  131403  [Less: 78840,  Equal: 52563]
  Nonzeros           :  302275
  RHS nonzeros       :   40516

Variables            : Min LB: 0.000000         Max UB: 700000.0       
Objective nonzeros   : Min   : 0.05975555       Max   : 47814.58       
Linear constraints   :
  Nonzeros           : Min   : 0.001000000      Max   : 15.00000       
  RHS nonzeros       : Min   : 0.2460000        Max   : 104.0000       
CPLEX> Version identifier: 22.1.0.0 | 2022-03-09 | 1a383f8ce
CPXPARAM_TimeLimit                               36000
CPXPARAM_MIP_Tolerances_MIPGap                   0.050000000000000003
Tried aggregator 2 times.
MIP Presolve eliminated 29288 rows and 20017 columns.
MIP Presolve modified 24343 coefficients.
Aggregator did 14890 substitutions.
Reduced MIP has 87225 rows, 61459 columns, and 218372 nonzeros.
Reduced MIP has 8250 binaries, 0 generals, 0 SOSs, and 0 indicators.
Presolve time = 0.33 sec. (653.48 ticks)
Found incumbent of value 192721.945731 after 0.66 sec. (1247.84 ticks)
Probing fixed 3 vars, tightened 5813 bounds.
Probing time = 0.50 sec. (97.48 ticks)
Tried aggregator 2 times.
MIP Presolve eliminated 3336 rows and 3333 columns.
MIP Presolve modified 1668 coefficients.
Aggregator did 3321 substitutions.
Reduced MIP has 80568 rows, 54805 columns, and 201731 nonzeros.
Reduced MIP has 8247 binaries, 0 generals, 0 SOSs, and 0 indicators.
Presolve time = 0.07 sec. (104.77 ticks)
Probing time = 0.04 sec. (27.16 ticks)
Tried aggregator 1 time.
Detecting symmetries...
Reduced MIP has 80568 rows, 54805 columns, and 201731 nonzeros.
Reduced MIP has 8247 binaries, 0 generals, 0 SOSs, and 0 indicators.
Presolve time = 0.10 sec. (109.82 ticks)
Probing time = 0.04 sec. (27.00 ticks)
Clique table members: 18010.
MIP emphasis: balance optimality and feasibility.
MIP search method: dynamic search.
Parallel mode: deterministic, using up to 32 threads.
Root relaxation solution time = 1.56 sec. (1848.99 ticks)

        Nodes                                         Cuts/
   Node  Left     Objective  IInf  Best Integer    Best Bound    ItCnt     Gap

*     0+    0                       192721.9457        0.0000           100.00%
      0     0   144908.5942  6653   192721.9457   144908.5942       35   24.81%
      0     0   151927.4718  5998   192721.9457    Cuts: 9999    20768   21.17%
      0     0   152816.8437  5852   192721.9457    Cuts: 9990    29062   20.71%
      0     0   153487.7067  5751   192721.9457    Cuts: 7881    33966   20.36%
      0     0   153589.7691  5765   192721.9457    Cuts: 8252    34910   20.30%
      0     0   153591.8072  5771   192721.9457    Cuts: 6594    34989   20.30%
Detecting symmetries...
      0     0   153595.8892  5770   192721.9457    Cuts: 6664    35076   20.30%
*     0+    0                       170797.9378   153595.8892            10.07%
Heuristic still looking.
*     0+    0                       161974.9557   153595.8892             5.17%
Heuristic still looking.
Detecting symmetries...
      0     2   153595.8892  5770   161974.9557   153595.8892    35076    5.17%
Elapsed time = 93.70 sec. (160747.43 ticks, tree = 0.02 MB, solutions = 3)
      1     3   155622.4291  3419   161974.9557   153607.9598    41959    5.17%
      2     3   159999.8153  6947   161974.9557   153607.9598    46833    5.17%

Clique cuts applied:  1155
Implied bound cuts applied:  4240
Flow cuts applied:  8173
Mixed integer rounding cuts applied:  9978
Lift and project cuts applied:  1
Gomory fractional cuts applied:  1

Root node processing (before b&c):
  Real time             =   92.08 sec. (158758.60 ticks)
Parallel b&c, 32 threads:
  Real time             =    5.43 sec. (9994.27 ticks)
  Sync time (average)   =    4.72 sec.
  Wait time (average)   =    0.00 sec.
                          ------------
Total (root+branch&cut) =   97.52 sec. (168752.88 ticks)

Solution pool: 3 solutions saved.

MIP - Integer optimal, tolerance (0.05/1e-06):  Objective =  1.6197495573e+05
Current MIP best bound =  1.5562243733e+05 (gap = 6352.52, 3.92%)
Solution time =   97.56 sec.  Iterations = 53716  Nodes = 3 (4)
Deterministic time = 168753.15 ticks  (1729.69 ticks/sec)

CPLEX> Incumbent solution written to file '/tmp/tmpmmk1o3h1.cplex.sol'.
CPLEX> 
